\ This file has been generated by DOcplex
\ ENCODING=ISO-8859-1
\Problem name: random22642_6.lp

Minimize
 obj: - 296 x0 - 148 x1 - 76 x2 - 38 x3 + 278 x4 + 139 x5 + [ 536 x0^2
      + 536 x0*x1 + 208 x0*x2 + 104 x0*x3 + 640 x0*x4 + 320 x0*x5 + 134 x1^2
      + 104 x1*x2 + 52 x1*x3 + 320 x1*x4 + 160 x1*x5 + 560 x2^2 + 560 x2*x3
      + 304 x2*x4 + 152 x2*x5 + 140 x3^2 + 152 x3*x4 + 76 x3*x5 + 600 x4^2
      + 600 x4*x5 + 150 x5^2 ]/2
Subject To
 c0: 2 x0 + x1 + 2 x2 + x3 + 2 x4 + x5 = 3

Bounds
 0 <= x0 <= 1
 0 <= x1 <= 1
 0 <= x2 <= 1
 0 <= x3 <= 1
 0 <= x4 <= 1
 0 <= x5 <= 1

Binaries
 x0 x1 x2 x3 x4 x5
End
